
******************************************************************************
This program contains Ipopt, a library for large-scale nonlinear optimization.
 Ipopt is released as open source code under the Eclipse Public License (EPL).
         For more information visit https://github.com/coin-or/Ipopt
******************************************************************************

This is Ipopt version 3.14.19, running with linear solver MUMPS 5.8.1.

Number of nonzeros in equality constraint Jacobian...:     4389
Number of nonzeros in inequality constraint Jacobian.:        0
Number of nonzeros in Lagrangian Hessian.............:     1050

Total number of variables............................:     1287
                     variables with only lower bounds:        0
                variables with lower and upper bounds:      457
                     variables with only upper bounds:        0
Total number of equality constraints.................:     1274
Total number of inequality constraints...............:        0
        inequality constraints with only lower bounds:        0
   inequality constraints with lower and upper bounds:        0
        inequality constraints with only upper bounds:        0

iter    objective    inf_pr   inf_du lg(mu)  ||d||  lg(rg) alpha_du alpha_pr  ls
   0  9.8522933e+00 9.80e+01 2.02e-04  -1.0 0.00e+00    -  0.00e+00 0.00e+00   0
   1  1.0151661e+01 1.20e+02 2.22e+01  -1.0 9.69e+01    -  4.17e-02 1.00e+00h  1
   2  1.0012746e+01 2.13e+01 4.93e-02  -1.0 2.99e+01    -  9.60e-01 1.00e+00h  1
   3  9.9736392e+00 1.29e+01 8.01e-02  -1.0 5.19e+00    -  5.28e-01 4.61e-01h  1
   4  1.0071492e+01 2.59e+00 7.73e-02  -1.0 1.08e+01    -  6.85e-01 6.41e-01h  1
   5  1.0018121e+01 2.26e-01 1.15e-03  -1.0 5.27e-01    -  1.00e+00 1.00e+00h  1
   6  9.9838367e+00 1.10e-01 1.96e-02  -1.7 4.09e-01    -  9.90e-01 1.00e+00h  1
   7  9.8978778e+00 2.28e+00 1.15e-01  -2.5 1.70e+00    -  6.40e-01 1.00e+00h  1
   8  9.8670407e+00 6.01e+00 3.57e-03  -2.5 8.47e+00    -  1.00e+00 1.00e+00h  1
   9  9.8626431e+00 1.09e+01 1.97e-04  -2.5 8.06e+01    -  1.00e+00 1.00e+00h  1
iter    objective    inf_pr   inf_du lg(mu)  ||d||  lg(rg) alpha_du alpha_pr  ls
  10  9.8624683e+00 2.28e-01 1.25e-05  -2.5 4.86e+01    -  1.00e+00 1.00e+00h  1
  11  9.8625217e+00 2.59e-03 2.88e-08  -2.5 1.15e+00    -  1.00e+00 1.00e+00h  1
  12  9.8547805e+00 2.30e+01 1.74e-02  -3.8 4.49e+01    -  8.84e-01 1.00e+00h  1
  13  9.8539806e+00 3.60e+00 3.04e-03  -3.8 3.43e+01    -  9.44e-01 1.00e+00h  1
  14  9.8522974e+00 1.33e+00 4.47e-03  -3.8 3.71e+00    -  1.00e+00 6.48e-01h  1
  15  9.8527760e+00 2.70e-03 1.16e-05  -3.8 1.64e+00    -  1.00e+00 1.00e+00h  1
  16  9.8528521e+00 1.53e-04 1.05e-06  -3.8 3.49e-02    -  1.00e+00 1.00e+00h  1
  17  9.8523487e+00 2.48e-04 1.68e-04  -5.7 4.09e-01    -  5.77e-01 5.42e-01h  1
  18  9.8522654e+00 9.89e-05 1.43e-03  -5.7 5.41e-02    -  9.92e-01 6.99e-01h  1
  19  9.8522674e+00 7.03e-06 6.02e-09  -5.7 7.07e-03    -  1.00e+00 1.00e+00h  1
iter    objective    inf_pr   inf_du lg(mu)  ||d||  lg(rg) alpha_du alpha_pr  ls
  20  9.8522637e+00 5.41e-08 6.93e-07  -8.6 1.68e-03    -  9.99e-01 9.93e-01h  1
  21  9.8522637e+00 1.13e-12 1.50e-15  -8.6 2.83e-06    -  1.00e+00 1.00e+00f  1

Number of Iterations....: 21

                                   (scaled)                 (unscaled)
Objective...............:   9.8522637057970925e+00    9.8522637057970925e+00
Dual infeasibility......:   1.4988010832439613e-15    1.4988010832439613e-15
Constraint violation....:   1.1306511282842436e-12    1.1306511282842436e-12
Variable bound violation:   0.0000000000000000e+00    0.0000000000000000e+00
Complementarity.........:   2.5059520887454069e-09    2.5059520887454069e-09
Overall NLP error.......:   2.5059520887454069e-09    2.5059520887454069e-09


Number of objective function evaluations             = 22
Number of objective gradient evaluations             = 22
Number of equality constraint evaluations            = 22
Number of inequality constraint evaluations          = 0
Number of equality constraint Jacobian evaluations   = 22
Number of inequality constraint Jacobian evaluations = 0
Number of Lagrangian Hessian evaluations             = 21
Total seconds in IPOPT                               = 0.103

EXIT: Optimal Solution Found.
